50
1 0 15
2 0 6
2 1 14
3 0 8
3 1 18
3 2 15
4 0 12
4 1 14
4 2 11
4 3 10
5 0 10
5 1 11
5 2 20
5 3 9
5 4 12
6 0 20
6 1 4
6 2 15
6 3 6
6 4 20
6 5 7
7 0 11
7 1 17
7 2 6
7 3 7
7 4 18
7 5 19
7 6 16
8 0 1
8 1 2
8 2 18
8 3 12
8 4 15
8 5 17
8 6 8
8 7 9
9 0 19
9 1 15
9 2 9
9 3 11
9 4 11
9 5 5
9 6 4
9 7 8
9 8 6
10 0 20
10 1 14
10 2 9
10 3 15
10 4 1
10 5 8
10 6 5
10 7 17
10 8 10
10 9 3
11 0 20
11 1 3
11 2 7
11 3 18
11 4 6
11 5 13
11 6 7
11 7 8
11 8 2
11 9 4
11 10 2
12 0 6
12 1 12
12 2 11
12 3 19
12 4 7
12 5 14
12 6 18
12 7 11
12 8 3
12 9 4
12 10 1
12 11 5
13 0 7
13 1 15
13 2 4
13 3 2
13 4 12
13 5 8
13 6 19
13 7 4
13 8 19
13 9 3
13 10 9
13 11 20
13 12 13
14 0 14
14 1 5
14 2 19
14 3 7
14 4 11
14 5 12
14 6 11
14 7 16
14 8 11
14 9 3
14 10 1
14 11 11
14 12 6
14 13 7
15 0 18
15 1 3
15 2 18
15 3 1
15 4 9
15 5 7
15 6 11
15 7 18
15 8 17
15 9 15
15 10 9
15 11 15
15 12 9
15 13 17
15 14 2
16 0 18
16 1 17
16 2 2
16 3 15
16 4 10
16 5 8
16 6 15
16 7 9
16 8 14
16 9 17
16 10 19
16 11 19
16 12 9
16 13 14
16 14 8
16 15 16
17 0 19
17 1 17
17 2 17
17 3 9
17 4 19
17 5 2
17 6 9
17 7 3
17 8 16
17 9 19
17 10 2
17 11 6
17 12 16
17 13 9
17 14 8
17 15 7
17 16 17
18 0 4
18 1 15
18 2 2
18 3 5
18 4 18
18 5 11
18 6 20
18 7 3
18 8 18
18 9 19
18 10 8
18 11 1
18 12 9
18 13 19
18 14 18
18 15 17
18 16 16
18 17 12
19 0 14
19 1 13
19 2 16
19 3 20
19 4 16
19 5 15
19 6 14
19 7 11
19 8 12
19 9 13
19 10 17
19 11 10
19 12 15
19 13 14
19 14 15
19 15 8
19 16 6
19 17 14
19 18 5
20 0 17
20 1 6
20 2 16
20 3 13
20 4 9
20 5 5
20 6 11
20 7 14
20 8 9
20 9 9
20 10 9
20 11 1
20 12 9
20 13 7
20 14 1
20 15 5
20 16 6
20 17 3
20 18 3
20 19 19
21 0 8
21 1 18
21 2 2
21 3 10
21 4 19
21 5 4
21 6 9
21 7 11
21 8 7
21 9 10
21 10 3
21 11 14
21 12 8
21 13 15
21 14 2
21 15 1
21 16 3
21 17 11
21 18 2
21 19 10
21 20 9
22 0 7
22 1 16
22 2 10
22 3 16
22 4 11
22 5 18
22 6 1
22 7 18
22 8 10
22 9 3
22 10 18
22 11 11
22 12 5
22 13 17
22 14 10
22 15 13
22 16 11
22 17 18
22 18 14
22 19 20
22 20 10
22 21 5
23 0 19
23 1 1
23 2 8
23 3 10
23 4 18
23 5 19
23 6 19
23 7 17
23 8 13
23 9 10
23 10 11
23 11 3
23 12 14
23 13 16
23 14 4
23 15 14
23 16 13
23 17 3
23 18 13
23 19 3
23 20 5
23 21 17
23 22 8
24 0 12
24 1 19
24 2 20
24 3 15
24 4 5
24 5 9
24 6 19
24 7 15
24 8 7
24 9 20
24 10 20
24 11 15
24 12 18
24 13 17
24 14 13
24 15 12
24 16 7
24 17 8
24 18 8
24 19 16
24 20 6
24 21 16
24 22 11
24 23 14
25 0 17
25 1 6
25 2 11
25 3 14
25 4 3
25 5 17
25 6 15
25 7 8
25 8 14
25 9 1
25 10 11
25 11 8
25 12 11
25 13 19
25 14 16
25 15 20
25 16 20
25 17 1
25 18 5
25 19 10
25 20 3
25 21 4
25 22 1
25 23 4
25 24 17
26 0 10
26 1 13
26 2 11
26 3 20
26 4 6
26 5 16
26 6 15
26 7 2
26 8 19
26 9 2
26 10 18
26 11 6
26 12 14
26 13 8
26 14 18
26 15 10
26 16 14
26 17 2
26 18 17
26 19 15
26 20 7
26 21 3
26 22 9
26 23 5
26 24 8
26 25 5
27 0 11
27 1 3
27 2 18
27 3 11
27 4 11
27 5 15
27 6 19
27 7 17
27 8 3
27 9 5
27 10 1
27 11 2
27 12 7
27 13 1
27 14 1
27 15 16
27 16 17
27 17 2
27 18 17
27 19 5
27 20 11
27 21 12
27 22 18
27 23 9
27 24 5
27 25 13
27 26 9
28 0 8
28 1 9
28 2 5
28 3 10
28 4 18
28 5 19
28 6 13
28 7 8
28 8 11
28 9 16
28 10 2
28 11 3
28 12 3
28 13 7
28 14 18
28 15 3
28 16 6
28 17 17
28 18 7
28 19 11
28 20 19
28 21 2
28 22 18
28 23 9
28 24 9
28 25 9
28 26 9
28 27 1
29 0 9
29 1 2
29 2 14
29 3 16
29 4 16
29 5 12
29 6 9
29 7 10
29 8 5
29 9 17
29 10 6
29 11 13
29 12 16
29 13 6
29 14 18
29 15 10
29 16 11
29 17 9
29 18 19
29 19 18
29 20 1
29 21 11
29 22 7
29 23 16
29 24 14
29 25 5
29 26 8
29 27 7
29 28 4
30 0 11
30 1 16
30 2 7
30 3 12
30 4 9
30 5 20
30 6 13
30 7 3
30 8 11
30 9 2
30 10 14
30 11 17
30 12 5
30 13 6
30 14 16
30 15 15
30 16 7
30 17 10
30 18 12
30 19 9
30 20 5
30 21 18
30 22 11
30 23 2
30 24 17
30 25 7
30 26 9
30 27 6
30 28 13
30 29 18
31 0 7
31 1 3
31 2 20
31 3 16
31 4 9
31 5 10
31 6 14
31 7 4
31 8 12
31 9 20
31 10 17
31 11 13
31 12 17
31 13 2
31 14 19
31 15 14
31 16 6
31 17 2
31 18 4
31 19 3
31 20 20
31 21 18
31 22 16
31 23 6
31 24 8
31 25 13
31 26 20
31 27 1
31 28 8
31 29 12
31 30 12
32 0 15
32 1 15
32 2 18
32 3 14
32 4 15
32 5 11
32 6 1
32 7 11
32 8 4
32 9 16
32 10 3
32 11 20
32 12 3
32 13 11
32 14 13
32 15 11
32 16 16
32 17 14
32 18 3
32 19 20
32 20 4
32 21 1
32 22 3
32 23 5
32 24 1
32 25 12
32 26 19
32 27 4
32 28 20
32 29 11
32 30 11
32 31 20
33 0 17
33 1 12
33 2 4
33 3 9
33 4 4
33 5 19
33 6 3
33 7 15
33 8 11
33 9 13
33 10 1
33 11 6
33 12 13
33 13 18
33 14 18
33 15 6
33 16 14
33 17 15
33 18 2
33 19 12
33 20 13
33 21 19
33 22 19
33 23 1
33 24 17
33 25 1
33 26 10
33 27 7
33 28 17
33 29 17
33 30 5
33 31 7
33 32 20
34 0 8
34 1 13
34 2 14
34 3 15
34 4 8
34 5 16
34 6 5
34 7 13
34 8 15
34 9 3
34 10 15
34 11 14
34 12 8
34 13 6
34 14 19
34 15 8
34 16 19
34 17 14
34 18 11
34 19 11
34 20 13
34 21 20
34 22 13
34 23 12
34 24 7
34 25 13
34 26 18
34 27 19
34 28 5
34 29 18
34 30 14
34 31 3
34 32 2
34 33 17
35 0 12
35 1 19
35 2 14
35 3 14
35 4 20
35 5 9
35 6 19
35 7 9
35 8 16
35 9 10
35 10 2
35 11 16
35 12 17
35 13 12
35 14 15
35 15 7
35 16 1
35 17 7
35 18 10
35 19 7
35 20 6
35 21 14
35 22 13
35 23 15
35 24 18
35 25 14
35 26 8
35 27 12
35 28 11
35 29 3
35 30 17
35 31 20
35 32 14
35 33 4
35 34 15
36 0 14
36 1 13
36 2 13
36 3 20
36 4 15
36 5 11
36 6 12
36 7 2
36 8 7
36 9 9
36 10 14
36 11 9
36 12 14
36 13 13
36 14 6
36 15 12
36 16 17
36 17 6
36 18 13
36 19 14
36 20 17
36 21 20
36 22 17
36 23 16
36 24 6
36 25 11
36 26 16
36 27 3
36 28 1
36 29 3
36 30 15
36 31 7
36 32 20
36 33 18
36 34 20
36 35 14
37 0 20
37 1 9
37 2 4
37 3 18
37 4 2
37 5 16
37 6 12
37 7 17
37 8 1
37 9 6
37 10 17
37 11 7
37 12 10
37 13 10
37 14 7
37 15 11
37 16 19
37 17 19
37 18 1
37 19 9
37 20 16
37 21 15
37 22 10
37 23 10
37 24 8
37 25 7
37 26 8
37 27 4
37 28 13
37 29 20
37 30 3
37 31 14
37 32 1
37 33 7
37 34 9
37 35 18
37 36 19
38 0 18
38 1 15
38 2 9
38 3 15
38 4 8
38 5 5
38 6 8
38 7 17
38 8 11
38 9 11
38 10 11
38 11 7
38 12 20
38 13 3
38 14 1
38 15 10
38 16 6
38 17 11
38 18 12
38 19 4
38 20 17
38 21 17
38 22 16
38 23 1
38 24 16
38 25 10
38 26 6
38 27 14
38 28 4
38 29 20
38 30 13
38 31 18
38 32 17
38 33 17
38 34 4
38 35 9
38 36 7
38 37 12
39 0 14
39 1 9
39 2 12
39 3 2
39 4 6
39 5 4
39 6 8
39 7 13
39 8 13
39 9 10
39 10 6
39 11 10
39 12 18
39 13 13
39 14 11
39 15 17
39 16 4
39 17 6
39 18 15
39 19 2
39 20 11
39 21 3
39 22 3
39 23 7
39 24 10
39 25 13
39 26 17
39 27 1
39 28 10
39 29 16
39 30 15
39 31 11
39 32 8
39 33 5
39 34 5
39 35 13
39 36 11
39 37 16
39 38 13
40 0 3
40 1 14
40 2 2
40 3 18
40 4 14
40 5 16
40 6 9
40 7 4
40 8 20
40 9 5
40 10 10
40 11 13
40 12 12
40 13 2
40 14 13
40 15 7
40 16 6
40 17 13
40 18 12
40 19 19
40 20 10
40 21 19
40 22 11
40 23 5
40 24 14
40 25 10
40 26 18
40 27 11
40 28 14
40 29 20
40 30 1
40 31 2
40 32 14
40 33 18
40 34 8
40 35 1
40 36 14
40 37 10
40 38 8
40 39 15
41 0 17
41 1 1
41 2 6
41 3 13
41 4 3
41 5 1
41 6 14
41 7 19
41 8 3
41 9 1
41 10 13
41 11 20
41 12 12
41 13 8
41 14 4
41 15 6
41 16 14
41 17 3
41 18 7
41 19 15
41 20 7
41 21 7
41 22 17
41 23 1
41 24 4
41 25 1
41 26 8
41 27 8
41 28 9
41 29 14
41 30 10
41 31 16
41 32 9
41 33 6
41 34 5
41 35 3
41 36 6
41 37 17
41 38 8
41 39 18
41 40 10
42 0 4
42 1 8
42 2 10
42 3 12
42 4 17
42 5 4
42 6 5
42 7 2
42 8 3
42 9 3
42 10 6
42 11 9
42 12 1
42 13 9
42 14 12
42 15 15
42 16 3
42 17 13
42 18 8
42 19 19
42 20 17
42 21 12
42 22 17
42 23 16
42 24 17
42 25 5
42 26 13
42 27 16
42 28 6
42 29 1
42 30 17
42 31 6
42 32 5
42 33 12
42 34 14
42 35 16
42 36 5
42 37 12
42 38 4
42 39 7
42 40 5
42 41 15
43 0 16
43 1 4
43 2 9
43 3 1
43 4 11
43 5 6
43 6 2
43 7 10
43 8 20
43 9 10
43 10 14
43 11 12
43 12 1
43 13 20
43 14 17
43 15 15
43 16 15
43 17 16
43 18 5
43 19 10
43 20 5
43 21 7
43 22 12
43 23 14
43 24 4
43 25 2
43 26 10
43 27 3
43 28 17
43 29 9
43 30 14
43 31 4
43 32 16
43 33 6
43 34 7
43 35 19
43 36 6
43 37 15
43 38 14
43 39 12
43 40 11
43 41 5
43 42 10
44 0 2
44 1 3
44 2 1
44 3 11
44 4 11
44 5 20
44 6 8
44 7 18
44 8 8
44 9 19
44 10 15
44 11 3
44 12 17
44 13 4
44 14 9
44 15 6
44 16 20
44 17 9
44 18 7
44 19 8
44 20 4
44 21 15
44 22 13
44 23 6
44 24 2
44 25 16
44 26 10
44 27 12
44 28 6
44 29 18
44 30 8
44 31 14
44 32 13
44 33 7
44 34 18
44 35 3
44 36 15
44 37 15
44 38 16
44 39 5
44 40 17
44 41 9
44 42 9
44 43 19
45 0 17
45 1 3
45 2 20
45 3 4
45 4 19
45 5 14
45 6 5
45 7 14
45 8 16
45 9 18
45 10 13
45 11 2
45 12 10
45 13 8
45 14 19
45 15 1
45 16 20
45 17 3
45 18 17
45 19 20
45 20 1
45 21 6
45 22 1
45 23 18
45 24 12
45 25 3
45 26 1
45 27 6
45 28 12
45 29 9
45 30 6
45 31 6
45 32 2
45 33 14
45 34 16
45 35 5
45 36 16
45 37 13
45 38 19
45 39 7
45 40 12
45 41 7
45 42 9
45 43 3
45 44 10
46 0 16
46 1 14
46 2 20
46 3 11
46 4 11
46 5 7
46 6 4
46 7 2
46 8 19
46 9 19
46 10 16
46 11 9
46 12 20
46 13 3
46 14 18
46 15 11
46 16 1
46 17 15
46 18 10
46 19 6
46 20 15
46 21 2
46 22 2
46 23 19
46 24 12
46 25 11
46 26 8
46 27 5
46 28 12
46 29 12
46 30 19
46 31 9
46 32 19
46 33 2
46 34 17
46 35 14
46 36 11
46 37 2
46 38 20
46 39 12
46 40 10
46 41 4
46 42 12
46 43 13
46 44 15
46 45 15
47 0 10
47 1 4
47 2 11
47 3 4
47 4 15
47 5 13
47 6 4
47 7 13
47 8 18
47 9 14
47 10 1
47 11 11
47 12 20
47 13 18
47 14 18
47 15 4
47 16 5
47 17 17
47 18 17
47 19 12
47 20 10
47 21 13
47 22 9
47 23 2
47 24 3
47 25 1
47 26 3
47 27 7
47 28 14
47 29 10
47 30 4
47 31 4
47 32 7
47 33 19
47 34 5
47 35 5
47 36 6
47 37 9
47 38 17
47 39 5
47 40 2
47 41 10
47 42 10
47 43 8
47 44 11
47 45 10
47 46 16
48 0 13
48 1 18
48 2 17
48 3 13
48 4 4
48 5 1
48 6 1
48 7 13
48 8 11
48 9 1
48 10 19
48 11 5
48 12 18
48 13 2
48 14 19
48 15 15
48 16 5
48 17 3
48 18 11
48 19 11
48 20 8
48 21 19
48 22 8
48 23 11
48 24 2
48 25 9
48 26 14
48 27 11
48 28 17
48 29 6
48 30 7
48 31 4
48 32 15
48 33 14
48 34 13
48 35 10
48 36 17
48 37 18
48 38 17
48 39 5
48 40 6
48 41 20
48 42 4
48 43 20
48 44 19
48 45 2
48 46 17
48 47 17
49 0 7
49 1 1
49 2 11
49 3 14
49 4 2
49 5 9
49 6 17
49 7 13
49 8 5
49 9 17
49 10 14
49 11 13
49 12 9
49 13 10
49 14 6
49 15 7
49 16 2
49 17 7
49 18 19
49 19 4
49 20 15
49 21 13
49 22 10
49 23 1
49 24 1
49 25 17
49 26 10
49 27 11
49 28 11
49 29 12
49 30 11
49 31 6
49 32 3
49 33 11
49 34 13
49 35 16
49 36 9
49 37 17
49 38 13
49 39 10
49 40 17
49 41 5
49 42 6
49 43 18
49 44 16
49 45 4
49 46 6
49 47 10
49 48 16
